row=9;
column=9;

Board=[|0,0,3,0,1,2,5,6,9|0,0,0,0,0,0,7,1,4|0,0,0,5,0,0,8,3,0|0,8,7,0,0,1,0,0,0|5,0,0,7,3,6,1,4,0|1,6,4,8,0,9,0,0,3|2,3,6,1,8,0,0,0,7|0,0,9,0,0,3,0,0,0|0,0,0,0,0,5,0,2,0|];
OE=[|0,1,1,0,1,0,1,0,1|1,0,1,1,0,0,1,1,0|0,0,1,1,1,1,0,1,0|1,0,1,0,0,1,0,1,1|1,1,0,1,1,0,1,0,0|1,0,0,0,1,1,0,1,1|0,1,0,1,0,0,1,1,1|1,1,1,0,0,1,0,0,1|0,1,0,1,1,1,1,0,0|];
